18
1 5
2 6
3 3
4 4
5 1
6 10
7 3
8 6
9 6
10 6
11 2
12 6
13 9
14 1
15 6
16 10
17 4
70
0 1 95
1 0 95
0 2 63
2 0 63
0 3 12
3 0 12
0 4 72
4 0 72
0 5 18
5 0 18
0 6 94
6 0 94
0 7 5
7 0 5
0 8 22
8 0 22
0 9 80
9 0 80
0 10 44
10 0 44
0 11 53
11 0 53
0 12 59
12 0 59
0 13 58
13 0 58
0 14 74
14 0 74
0 15 28
15 0 28
0 16 77
16 0 77
0 17 86
17 0 86
1 6 20
1 8 16
1 17 85
2 4 87
2 14 18
2 15 63
3 10 57
3 16 55
4 6 5
4 7 19
4 9 6
4 16 30
4 17 32
5 8 67
5 10 78
6 7 79
6 8 78
6 12 65
6 14 27
6 16 32
7 8 26
8 17 57
9 11 57
9 13 47
9 14 22
9 15 45
9 16 59
10 13 85
10 14 4
12 15 69
12 16 76
13 15 10
13 16 64
14 15 44
14 17 24
15 16 51
